(declare-const a Real)
(declare-const b Real)
(declare-const c Real)
(assert (<= (+ (pow a 2) (pow b 2) (pow c 2) (* a b) (* a c) (* b c)) 2))
(assert (> a 0))
(assert (> b 0))
(assert (> c 0))
(assert (not (<= (+ 6 (* -2 (pow (+ a b) -2)) (* -2 (pow (+ a c) -2)) (* -2 (pow (+ b c) -2)) (* -4 a c (pow (+ (/ 2 3) (* (/ 1 3) (pow (+ 1 (pow (+ a c) 4)) 3))) -1)) (* -2 a b (pow (+ a b) -2)) (* -2 b c (pow (+ b c) -2))) 0)))
(check-sat)
(get-model)
(exit)